(set-info :category "industrial")
(set-info :status sat)
(declare-fun x04 () (_ BitVec 8))
(declare-fun x05 () (_ BitVec 8))
(declare-fun x06 () (_ BitVec 8))
(declare-fun x08 () (_ BitVec 8))
(declare-fun x10 () (_ BitVec 8))
(declare-fun x11 () (_ BitVec 8))
(declare-fun x13 () (_ BitVec 8))
(declare-fun x14 () (_ BitVec 8))
(declare-fun x15 () (_ BitVec 8))
(declare-fun x16 () (_ BitVec 8))
(declare-fun x17 () (_ BitVec 8))
(declare-fun x20 () (_ BitVec 8))
(declare-fun x22 () (_ BitVec 8))
(declare-fun x25 () (_ BitVec 8))
(declare-fun x28 () (_ BitVec 8))
(declare-fun x31 () (_ BitVec 8))
(declare-fun x32 () (_ BitVec 8))
(declare-fun x34 () (_ BitVec 8))
(declare-fun x35 () (_ BitVec 8))
(declare-fun x36 () (_ BitVec 8))
(declare-fun x37 () (_ BitVec 8))
(declare-fun x41 () (_ BitVec 8))
(declare-fun x43 () (_ BitVec 8))
(declare-fun x44 () (_ BitVec 8))
(declare-fun x46 () (_ BitVec 8))
(declare-fun x47 () (_ BitVec 8))
(declare-fun x48 () (_ BitVec 8))
(declare-fun x50 () (_ BitVec 8))
(declare-fun x52 () (_ BitVec 8))
(declare-fun x53 () (_ BitVec 8))
(declare-fun x54 () (_ BitVec 8))
(declare-fun x58 () (_ BitVec 8))
(declare-fun x60 () (_ BitVec 8))
(declare-fun x64 () (_ BitVec 8))
(declare-fun x65 () (_ BitVec 8))
(declare-fun x68 () (_ BitVec 8))
(declare-fun x70 () (_ BitVec 8))
(declare-fun x71 () (_ BitVec 8))
(declare-fun x73 () (_ BitVec 8))
(declare-fun x75 () (_ BitVec 8))
(declare-fun x77 () (_ BitVec 8))
(declare-fun x78 () (_ BitVec 8))
(declare-fun x81 () (_ BitVec 8))
(declare-fun x82 () (_ BitVec 8))
(declare-fun x84 () (_ BitVec 8))
(declare-fun x86 () (_ BitVec 8))
(assert (bvult x04 (_ bv9 8)))
(assert (bvult x05 (_ bv9 8)))
(assert (bvult x06 (_ bv9 8)))
(assert (bvult x08 (_ bv9 8)))
(assert (bvult x10 (_ bv9 8)))
(assert (bvult x11 (_ bv9 8)))
(assert (bvult x13 (_ bv9 8)))
(assert (bvult x14 (_ bv9 8)))
(assert (bvult x15 (_ bv9 8)))
(assert (bvult x16 (_ bv9 8)))
(assert (bvult x17 (_ bv9 8)))
(assert (bvult x20 (_ bv9 8)))
(assert (bvult x22 (_ bv9 8)))
(assert (bvult x25 (_ bv9 8)))
(assert (bvult x28 (_ bv9 8)))
(assert (bvult x31 (_ bv9 8)))
(assert (bvult x32 (_ bv9 8)))
(assert (bvult x34 (_ bv9 8)))
(assert (bvult x35 (_ bv9 8)))
(assert (bvult x36 (_ bv9 8)))
(assert (bvult x37 (_ bv9 8)))
(assert (bvult x41 (_ bv9 8)))
(assert (bvult x43 (_ bv9 8)))
(assert (bvult x44 (_ bv9 8)))
(assert (bvult x46 (_ bv9 8)))
(assert (bvult x47 (_ bv9 8)))
(assert (bvult x48 (_ bv9 8)))
(assert (bvult x50 (_ bv9 8)))
(assert (bvult x52 (_ bv9 8)))
(assert (bvult x53 (_ bv9 8)))
(assert (bvult x54 (_ bv9 8)))
(assert (bvult x58 (_ bv9 8)))
(assert (bvult x60 (_ bv9 8)))
(assert (bvult x64 (_ bv9 8)))
(assert (bvult x65 (_ bv9 8)))
(assert (bvult x68 (_ bv9 8)))
(assert (bvult x70 (_ bv9 8)))
(assert (bvult x71 (_ bv9 8)))
(assert (bvult x73 (_ bv9 8)))
(assert (bvult x75 (_ bv9 8)))
(assert (bvult x77 (_ bv9 8)))
(assert (bvult x78 (_ bv9 8)))
(assert (bvult x81 (_ bv9 8)))
(assert (bvult x82 (_ bv9 8)))
(assert (bvult x84 (_ bv9 8)))
(assert (bvult x86 (_ bv9 8)))
(assert (not (= (_ bv9 8) (_ bv8 8))))
(assert (not (= (_ bv9 8) (_ bv6 8))))
(assert (not (= (_ bv9 8) (_ bv4 8))))
(assert (not (= (_ bv9 8) x04)))
(assert (not (= (_ bv9 8) x05)))
(assert (not (= (_ bv9 8) x06)))
(assert (not (= (_ bv9 8) (_ bv5 8))))
(assert (not (= (_ bv9 8) x08)))
(assert (not (= (_ bv8 8) (_ bv6 8))))
(assert (not (= (_ bv8 8) (_ bv4 8))))
(assert (not (= (_ bv8 8) x04)))
(assert (not (= (_ bv8 8) x05)))
(assert (not (= (_ bv8 8) x06)))
(assert (not (= (_ bv8 8) (_ bv5 8))))
(assert (not (= (_ bv8 8) x08)))
(assert (not (= (_ bv6 8) (_ bv4 8))))
(assert (not (= (_ bv6 8) x04)))
(assert (not (= (_ bv6 8) x05)))
(assert (not (= (_ bv6 8) x06)))
(assert (not (= (_ bv6 8) (_ bv5 8))))
(assert (not (= (_ bv6 8) x08)))
(assert (not (= (_ bv4 8) x04)))
(assert (not (= (_ bv4 8) x05)))
(assert (not (= (_ bv4 8) x06)))
(assert (not (= (_ bv4 8) (_ bv5 8))))
(assert (not (= (_ bv4 8) x08)))
(assert (not (= x04 x05)))
(assert (not (= x04 x06)))
(assert (not (= x04 (_ bv5 8))))
(assert (not (= x04 x08)))
(assert (not (= x05 x06)))
(assert (not (= x05 (_ bv5 8))))
(assert (not (= x05 x08)))
(assert (not (= x06 (_ bv5 8))))
(assert (not (= x06 x08)))
(assert (not (= (_ bv5 8) x08)))
(assert (not (= x10 x11)))
(assert (not (= x10 (_ bv2 8))))
(assert (not (= x10 x13)))
(assert (not (= x10 x14)))
(assert (not (= x10 x15)))
(assert (not (= x10 x16)))
(assert (not (= x10 x17)))
(assert (not (= x10 (_ bv1 8))))
(assert (not (= x11 (_ bv2 8))))
(assert (not (= x11 x13)))
(assert (not (= x11 x14)))
(assert (not (= x11 x15)))
(assert (not (= x11 x16)))
(assert (not (= x11 x17)))
(assert (not (= x11 (_ bv1 8))))
(assert (not (= (_ bv2 8) x13)))
(assert (not (= (_ bv2 8) x14)))
(assert (not (= (_ bv2 8) x15)))
(assert (not (= (_ bv2 8) x16)))
(assert (not (= (_ bv2 8) x17)))
(assert (not (= (_ bv2 8) (_ bv1 8))))
(assert (not (= x13 x14)))
(assert (not (= x13 x15)))
(assert (not (= x13 x16)))
(assert (not (= x13 x17)))
(assert (not (= x13 (_ bv1 8))))
(assert (not (= x14 x15)))
(assert (not (= x14 x16)))
(assert (not (= x14 x17)))
(assert (not (= x14 (_ bv1 8))))
(assert (not (= x15 x16)))
(assert (not (= x15 x17)))
(assert (not (= x15 (_ bv1 8))))
(assert (not (= x16 x17)))
(assert (not (= x16 (_ bv1 8))))
(assert (not (= x17 (_ bv1 8))))
(assert (not (= x20 (_ bv4 8))))
(assert (not (= x20 x22)))
(assert (not (= x20 (_ bv2 8))))
(assert (not (= x20 (_ bv8 8))))
(assert (not (= x20 x25)))
(assert (not (= x20 (_ bv6 8))))
(assert (not (= x20 (_ bv3 8))))
(assert (not (= x20 x28)))
(assert (not (= (_ bv4 8) x22)))
(assert (not (= (_ bv4 8) (_ bv2 8))))
(assert (not (= (_ bv4 8) (_ bv8 8))))
(assert (not (= (_ bv4 8) x25)))
(assert (not (= (_ bv4 8) (_ bv6 8))))
(assert (not (= (_ bv4 8) (_ bv3 8))))
(assert (not (= (_ bv4 8) x28)))
(assert (not (= x22 (_ bv2 8))))
(assert (not (= x22 (_ bv8 8))))
(assert (not (= x22 x25)))
(assert (not (= x22 (_ bv6 8))))
(assert (not (= x22 (_ bv3 8))))
(assert (not (= x22 x28)))
(assert (not (= (_ bv2 8) (_ bv8 8))))
(assert (not (= (_ bv2 8) x25)))
(assert (not (= (_ bv2 8) (_ bv6 8))))
(assert (not (= (_ bv2 8) (_ bv3 8))))
(assert (not (= (_ bv2 8) x28)))
(assert (not (= (_ bv8 8) x25)))
(assert (not (= (_ bv8 8) (_ bv6 8))))
(assert (not (= (_ bv8 8) (_ bv3 8))))
(assert (not (= (_ bv8 8) x28)))
(assert (not (= x25 (_ bv6 8))))
(assert (not (= x25 (_ bv3 8))))
(assert (not (= x25 x28)))
(assert (not (= (_ bv6 8) (_ bv3 8))))
(assert (not (= (_ bv6 8) x28)))
(assert (not (= (_ bv3 8) x28)))
(assert (not (= (_ bv2 8) x31)))
(assert (not (= (_ bv2 8) x32)))
(assert (not (= (_ bv2 8) (_ bv7 8))))
(assert (not (= (_ bv2 8) x34)))
(assert (not (= (_ bv2 8) x35)))
(assert (not (= (_ bv2 8) x36)))
(assert (not (= (_ bv2 8) x37)))
(assert (not (= (_ bv2 8) (_ bv3 8))))
(assert (not (= x31 x32)))
(assert (not (= x31 (_ bv7 8))))
(assert (not (= x31 x34)))
(assert (not (= x31 x35)))
(assert (not (= x31 x36)))
(assert (not (= x31 x37)))
(assert (not (= x31 (_ bv3 8))))
(assert (not (= x32 (_ bv7 8))))
(assert (not (= x32 x34)))
(assert (not (= x32 x35)))
(assert (not (= x32 x36)))
(assert (not (= x32 x37)))
(assert (not (= x32 (_ bv3 8))))
(assert (not (= (_ bv7 8) x34)))
(assert (not (= (_ bv7 8) x35)))
(assert (not (= (_ bv7 8) x36)))
(assert (not (= (_ bv7 8) x37)))
(assert (not (= (_ bv7 8) (_ bv3 8))))
(assert (not (= x34 x35)))
(assert (not (= x34 x36)))
(assert (not (= x34 x37)))
(assert (not (= x34 (_ bv3 8))))
(assert (not (= x35 x36)))
(assert (not (= x35 x37)))
(assert (not (= x35 (_ bv3 8))))
(assert (not (= x36 x37)))
(assert (not (= x36 (_ bv3 8))))
(assert (not (= x37 (_ bv3 8))))
(assert (not (= (_ bv8 8) x41)))
(assert (not (= (_ bv8 8) (_ bv5 8))))
(assert (not (= (_ bv8 8) x43)))
(assert (not (= (_ bv8 8) x44)))
(assert (not (= (_ bv8 8) (_ bv4 8))))
(assert (not (= (_ bv8 8) x46)))
(assert (not (= (_ bv8 8) x47)))
(assert (not (= (_ bv8 8) x48)))
(assert (not (= x41 (_ bv5 8))))
(assert (not (= x41 x43)))
(assert (not (= x41 x44)))
(assert (not (= x41 (_ bv4 8))))
(assert (not (= x41 x46)))
(assert (not (= x41 x47)))
(assert (not (= x41 x48)))
(assert (not (= (_ bv5 8) x43)))
(assert (not (= (_ bv5 8) x44)))
(assert (not (= (_ bv5 8) (_ bv4 8))))
(assert (not (= (_ bv5 8) x46)))
(assert (not (= (_ bv5 8) x47)))
(assert (not (= (_ bv5 8) x48)))
(assert (not (= x43 x44)))
(assert (not (= x43 (_ bv4 8))))
(assert (not (= x43 x46)))
(assert (not (= x43 x47)))
(assert (not (= x43 x48)))
(assert (not (= x44 (_ bv4 8))))
(assert (not (= x44 x46)))
(assert (not (= x44 x47)))
(assert (not (= x44 x48)))
(assert (not (= (_ bv4 8) x46)))
(assert (not (= (_ bv4 8) x47)))
(assert (not (= (_ bv4 8) x48)))
(assert (not (= x46 x47)))
(assert (not (= x46 x48)))
(assert (not (= x47 x48)))
(assert (not (= x50 (_ bv3 8))))
(assert (not (= x50 x52)))
(assert (not (= x50 x53)))
(assert (not (= x50 x54)))
(assert (not (= x50 (_ bv9 8))))
(assert (not (= x50 (_ bv1 8))))
(assert (not (= x50 (_ bv7 8))))
(assert (not (= x50 x58)))
(assert (not (= (_ bv3 8) x52)))
(assert (not (= (_ bv3 8) x53)))
(assert (not (= (_ bv3 8) x54)))
(assert (not (= (_ bv3 8) (_ bv9 8))))
(assert (not (= (_ bv3 8) (_ bv1 8))))
(assert (not (= (_ bv3 8) (_ bv7 8))))
(assert (not (= (_ bv3 8) x58)))
(assert (not (= x52 x53)))
(assert (not (= x52 x54)))
(assert (not (= x52 (_ bv9 8))))
(assert (not (= x52 (_ bv1 8))))
(assert (not (= x52 (_ bv7 8))))
(assert (not (= x52 x58)))
(assert (not (= x53 x54)))
(assert (not (= x53 (_ bv9 8))))
(assert (not (= x53 (_ bv1 8))))
(assert (not (= x53 (_ bv7 8))))
(assert (not (= x53 x58)))
(assert (not (= x54 (_ bv9 8))))
(assert (not (= x54 (_ bv1 8))))
(assert (not (= x54 (_ bv7 8))))
(assert (not (= x54 x58)))
(assert (not (= (_ bv9 8) (_ bv1 8))))
(assert (not (= (_ bv9 8) (_ bv7 8))))
(assert (not (= (_ bv9 8) x58)))
(assert (not (= (_ bv1 8) (_ bv7 8))))
(assert (not (= (_ bv1 8) x58)))
(assert (not (= (_ bv7 8) x58)))
(assert (not (= x60 (_ bv6 8))))
(assert (not (= x60 (_ bv3 8))))
(assert (not (= x60 (_ bv8 8))))
(assert (not (= x60 x64)))
(assert (not (= x60 x65)))
(assert (not (= x60 (_ bv2 8))))
(assert (not (= x60 (_ bv1 8))))
(assert (not (= x60 x68)))
(assert (not (= (_ bv6 8) (_ bv3 8))))
(assert (not (= (_ bv6 8) (_ bv8 8))))
(assert (not (= (_ bv6 8) x64)))
(assert (not (= (_ bv6 8) x65)))
(assert (not (= (_ bv6 8) (_ bv2 8))))
(assert (not (= (_ bv6 8) (_ bv1 8))))
(assert (not (= (_ bv6 8) x68)))
(assert (not (= (_ bv3 8) (_ bv8 8))))
(assert (not (= (_ bv3 8) x64)))
(assert (not (= (_ bv3 8) x65)))
(assert (not (= (_ bv3 8) (_ bv2 8))))
(assert (not (= (_ bv3 8) (_ bv1 8))))
(assert (not (= (_ bv3 8) x68)))
(assert (not (= (_ bv8 8) x64)))
(assert (not (= (_ bv8 8) x65)))
(assert (not (= (_ bv8 8) (_ bv2 8))))
(assert (not (= (_ bv8 8) (_ bv1 8))))
(assert (not (= (_ bv8 8) x68)))
(assert (not (= x64 x65)))
(assert (not (= x64 (_ bv2 8))))
(assert (not (= x64 (_ bv1 8))))
(assert (not (= x64 x68)))
(assert (not (= x65 (_ bv2 8))))
(assert (not (= x65 (_ bv1 8))))
(assert (not (= x65 x68)))
(assert (not (= (_ bv2 8) (_ bv1 8))))
(assert (not (= (_ bv2 8) x68)))
(assert (not (= (_ bv1 8) x68)))
(assert (not (= x70 x71)))
(assert (not (= x70 (_ bv9 8))))
(assert (not (= x70 x73)))
(assert (not (= x70 (_ bv5 8))))
(assert (not (= x70 x75)))
(assert (not (= x70 (_ bv8 8))))
(assert (not (= x70 x77)))
(assert (not (= x70 x78)))
(assert (not (= x71 (_ bv9 8))))
(assert (not (= x71 x73)))
(assert (not (= x71 (_ bv5 8))))
(assert (not (= x71 x75)))
(assert (not (= x71 (_ bv8 8))))
(assert (not (= x71 x77)))
(assert (not (= x71 x78)))
(assert (not (= (_ bv9 8) x73)))
(assert (not (= (_ bv9 8) (_ bv5 8))))
(assert (not (= (_ bv9 8) x75)))
(assert (not (= (_ bv9 8) (_ bv8 8))))
(assert (not (= (_ bv9 8) x77)))
(assert (not (= (_ bv9 8) x78)))
(assert (not (= x73 (_ bv5 8))))
(assert (not (= x73 x75)))
(assert (not (= x73 (_ bv8 8))))
(assert (not (= x73 x77)))
(assert (not (= x73 x78)))
(assert (not (= (_ bv5 8) x75)))
(assert (not (= (_ bv5 8) (_ bv8 8))))
(assert (not (= (_ bv5 8) x77)))
(assert (not (= (_ bv5 8) x78)))
(assert (not (= x75 (_ bv8 8))))
(assert (not (= x75 x77)))
(assert (not (= x75 x78)))
(assert (not (= (_ bv8 8) x77)))
(assert (not (= (_ bv8 8) x78)))
(assert (not (= x77 x78)))
(assert (not (= (_ bv7 8) x81)))
(assert (not (= (_ bv7 8) x82)))
(assert (not (= (_ bv7 8) (_ bv6 8))))
(assert (not (= (_ bv7 8) x84)))
(assert (not (= (_ bv7 8) (_ bv1 8))))
(assert (not (= (_ bv7 8) x86)))
(assert (not (= (_ bv7 8) (_ bv9 8))))
(assert (not (= (_ bv7 8) (_ bv5 8))))
(assert (not (= x81 x82)))
(assert (not (= x81 (_ bv6 8))))
(assert (not (= x81 x84)))
(assert (not (= x81 (_ bv1 8))))
(assert (not (= x81 x86)))
(assert (not (= x81 (_ bv9 8))))
(assert (not (= x81 (_ bv5 8))))
(assert (not (= x82 (_ bv6 8))))
(assert (not (= x82 x84)))
(assert (not (= x82 (_ bv1 8))))
(assert (not (= x82 x86)))
(assert (not (= x82 (_ bv9 8))))
(assert (not (= x82 (_ bv5 8))))
(assert (not (= (_ bv6 8) x84)))
(assert (not (= (_ bv6 8) (_ bv1 8))))
(assert (not (= (_ bv6 8) x86)))
(assert (not (= (_ bv6 8) (_ bv9 8))))
(assert (not (= (_ bv6 8) (_ bv5 8))))
(assert (not (= x84 (_ bv1 8))))
(assert (not (= x84 x86)))
(assert (not (= x84 (_ bv9 8))))
(assert (not (= x84 (_ bv5 8))))
(assert (not (= (_ bv1 8) x86)))
(assert (not (= (_ bv1 8) (_ bv9 8))))
(assert (not (= (_ bv1 8) (_ bv5 8))))
(assert (not (= x86 (_ bv9 8))))
(assert (not (= x86 (_ bv5 8))))
(assert (not (= (_ bv9 8) (_ bv5 8))))
(assert (not (= (_ bv9 8) x10)))
(assert (not (= (_ bv9 8) x20)))
(assert (not (= (_ bv9 8) (_ bv2 8))))
(assert (not (= (_ bv9 8) (_ bv8 8))))
(assert (not (= (_ bv9 8) x50)))
(assert (not (= (_ bv9 8) x60)))
(assert (not (= (_ bv9 8) x70)))
(assert (not (= (_ bv9 8) (_ bv7 8))))
(assert (not (= x10 x20)))
(assert (not (= x10 (_ bv2 8))))
(assert (not (= x10 (_ bv8 8))))
(assert (not (= x10 x50)))
(assert (not (= x10 x60)))
(assert (not (= x10 x70)))
(assert (not (= x10 (_ bv7 8))))
(assert (not (= x20 (_ bv2 8))))
(assert (not (= x20 (_ bv8 8))))
(assert (not (= x20 x50)))
(assert (not (= x20 x60)))
(assert (not (= x20 x70)))
(assert (not (= x20 (_ bv7 8))))
(assert (not (= (_ bv2 8) (_ bv8 8))))
(assert (not (= (_ bv2 8) x50)))
(assert (not (= (_ bv2 8) x60)))
(assert (not (= (_ bv2 8) x70)))
(assert (not (= (_ bv2 8) (_ bv7 8))))
(assert (not (= (_ bv8 8) x50)))
(assert (not (= (_ bv8 8) x60)))
(assert (not (= (_ bv8 8) x70)))
(assert (not (= (_ bv8 8) (_ bv7 8))))
(assert (not (= x50 x60)))
(assert (not (= x50 x70)))
(assert (not (= x50 (_ bv7 8))))
(assert (not (= x60 x70)))
(assert (not (= x60 (_ bv7 8))))
(assert (not (= x70 (_ bv7 8))))
(assert (not (= (_ bv8 8) x11)))
(assert (not (= (_ bv8 8) (_ bv4 8))))
(assert (not (= (_ bv8 8) x31)))
(assert (not (= (_ bv8 8) x41)))
(assert (not (= (_ bv8 8) (_ bv3 8))))
(assert (not (= (_ bv8 8) (_ bv6 8))))
(assert (not (= (_ bv8 8) x71)))
(assert (not (= (_ bv8 8) x81)))
(assert (not (= x11 (_ bv4 8))))
(assert (not (= x11 x31)))
(assert (not (= x11 x41)))
(assert (not (= x11 (_ bv3 8))))
(assert (not (= x11 (_ bv6 8))))
(assert (not (= x11 x71)))
(assert (not (= x11 x81)))
(assert (not (= (_ bv4 8) x31)))
(assert (not (= (_ bv4 8) x41)))
(assert (not (= (_ bv4 8) (_ bv3 8))))
(assert (not (= (_ bv4 8) (_ bv6 8))))
(assert (not (= (_ bv4 8) x71)))
(assert (not (= (_ bv4 8) x81)))
(assert (not (= x31 x41)))
(assert (not (= x31 (_ bv3 8))))
(assert (not (= x31 (_ bv6 8))))
(assert (not (= x31 x71)))
(assert (not (= x31 x81)))
(assert (not (= x41 (_ bv3 8))))
(assert (not (= x41 (_ bv6 8))))
(assert (not (= x41 x71)))
(assert (not (= x41 x81)))
(assert (not (= (_ bv3 8) (_ bv6 8))))
(assert (not (= (_ bv3 8) x71)))
(assert (not (= (_ bv3 8) x81)))
(assert (not (= (_ bv6 8) x71)))
(assert (not (= (_ bv6 8) x81)))
(assert (not (= x71 x81)))
(assert (not (= (_ bv6 8) (_ bv2 8))))
(assert (not (= (_ bv6 8) x22)))
(assert (not (= (_ bv6 8) x32)))
(assert (not (= (_ bv6 8) (_ bv5 8))))
(assert (not (= (_ bv6 8) x52)))
(assert (not (= (_ bv6 8) (_ bv3 8))))
(assert (not (= (_ bv6 8) (_ bv9 8))))
(assert (not (= (_ bv6 8) x82)))
(assert (not (= (_ bv2 8) x22)))
(assert (not (= (_ bv2 8) x32)))
(assert (not (= (_ bv2 8) (_ bv5 8))))
(assert (not (= (_ bv2 8) x52)))
(assert (not (= (_ bv2 8) (_ bv3 8))))
(assert (not (= (_ bv2 8) (_ bv9 8))))
(assert (not (= (_ bv2 8) x82)))
(assert (not (= x22 x32)))
(assert (not (= x22 (_ bv5 8))))
(assert (not (= x22 x52)))
(assert (not (= x22 (_ bv3 8))))
(assert (not (= x22 (_ bv9 8))))
(assert (not (= x22 x82)))
(assert (not (= x32 (_ bv5 8))))
(assert (not (= x32 x52)))
(assert (not (= x32 (_ bv3 8))))
(assert (not (= x32 (_ bv9 8))))
(assert (not (= x32 x82)))
(assert (not (= (_ bv5 8) x52)))
(assert (not (= (_ bv5 8) (_ bv3 8))))
(assert (not (= (_ bv5 8) (_ bv9 8))))
(assert (not (= (_ bv5 8) x82)))
(assert (not (= x52 (_ bv3 8))))
(assert (not (= x52 (_ bv9 8))))
(assert (not (= x52 x82)))
(assert (not (= (_ bv3 8) (_ bv9 8))))
(assert (not (= (_ bv3 8) x82)))
(assert (not (= (_ bv9 8) x82)))
(assert (not (= (_ bv4 8) x13)))
(assert (not (= (_ bv4 8) (_ bv2 8))))
(assert (not (= (_ bv4 8) (_ bv7 8))))
(assert (not (= (_ bv4 8) x43)))
(assert (not (= (_ bv4 8) x53)))
(assert (not (= (_ bv4 8) (_ bv8 8))))
(assert (not (= (_ bv4 8) x73)))
(assert (not (= (_ bv4 8) (_ bv6 8))))
(assert (not (= x13 (_ bv2 8))))
(assert (not (= x13 (_ bv7 8))))
(assert (not (= x13 x43)))
(assert (not (= x13 x53)))
(assert (not (= x13 (_ bv8 8))))
(assert (not (= x13 x73)))
(assert (not (= x13 (_ bv6 8))))
(assert (not (= (_ bv2 8) (_ bv7 8))))
(assert (not (= (_ bv2 8) x43)))
(assert (not (= (_ bv2 8) x53)))
(assert (not (= (_ bv2 8) (_ bv8 8))))
(assert (not (= (_ bv2 8) x73)))
(assert (not (= (_ bv2 8) (_ bv6 8))))
(assert (not (= (_ bv7 8) x43)))
(assert (not (= (_ bv7 8) x53)))
(assert (not (= (_ bv7 8) (_ bv8 8))))
(assert (not (= (_ bv7 8) x73)))
(assert (not (= (_ bv7 8) (_ bv6 8))))
(assert (not (= x43 x53)))
(assert (not (= x43 (_ bv8 8))))
(assert (not (= x43 x73)))
(assert (not (= x43 (_ bv6 8))))
(assert (not (= x53 (_ bv8 8))))
(assert (not (= x53 x73)))
(assert (not (= x53 (_ bv6 8))))
(assert (not (= (_ bv8 8) x73)))
(assert (not (= (_ bv8 8) (_ bv6 8))))
(assert (not (= x73 (_ bv6 8))))
(assert (not (= x04 x14)))
(assert (not (= x04 (_ bv8 8))))
(assert (not (= x04 x34)))
(assert (not (= x04 x44)))
(assert (not (= x04 x54)))
(assert (not (= x04 x64)))
(assert (not (= x04 (_ bv5 8))))
(assert (not (= x04 x84)))
(assert (not (= x14 (_ bv8 8))))
(assert (not (= x14 x34)))
(assert (not (= x14 x44)))
(assert (not (= x14 x54)))
(assert (not (= x14 x64)))
(assert (not (= x14 (_ bv5 8))))
(assert (not (= x14 x84)))
(assert (not (= (_ bv8 8) x34)))
(assert (not (= (_ bv8 8) x44)))
(assert (not (= (_ bv8 8) x54)))
(assert (not (= (_ bv8 8) x64)))
(assert (not (= (_ bv8 8) (_ bv5 8))))
(assert (not (= (_ bv8 8) x84)))
(assert (not (= x34 x44)))
(assert (not (= x34 x54)))
(assert (not (= x34 x64)))
(assert (not (= x34 (_ bv5 8))))
(assert (not (= x34 x84)))
(assert (not (= x44 x54)))
(assert (not (= x44 x64)))
(assert (not (= x44 (_ bv5 8))))
(assert (not (= x44 x84)))
(assert (not (= x54 x64)))
(assert (not (= x54 (_ bv5 8))))
(assert (not (= x54 x84)))
(assert (not (= x64 (_ bv5 8))))
(assert (not (= x64 x84)))
(assert (not (= (_ bv5 8) x84)))
(assert (not (= x05 x15)))
(assert (not (= x05 x25)))
(assert (not (= x05 x35)))
(assert (not (= x05 (_ bv4 8))))
(assert (not (= x05 (_ bv9 8))))
(assert (not (= x05 x65)))
(assert (not (= x05 x75)))
(assert (not (= x05 (_ bv1 8))))
(assert (not (= x15 x25)))
(assert (not (= x15 x35)))
(assert (not (= x15 (_ bv4 8))))
(assert (not (= x15 (_ bv9 8))))
(assert (not (= x15 x65)))
(assert (not (= x15 x75)))
(assert (not (= x15 (_ bv1 8))))
(assert (not (= x25 x35)))
(assert (not (= x25 (_ bv4 8))))
(assert (not (= x25 (_ bv9 8))))
(assert (not (= x25 x65)))
(assert (not (= x25 x75)))
(assert (not (= x25 (_ bv1 8))))
(assert (not (= x35 (_ bv4 8))))
(assert (not (= x35 (_ bv9 8))))
(assert (not (= x35 x65)))
(assert (not (= x35 x75)))
(assert (not (= x35 (_ bv1 8))))
(assert (not (= (_ bv4 8) (_ bv9 8))))
(assert (not (= (_ bv4 8) x65)))
(assert (not (= (_ bv4 8) x75)))
(assert (not (= (_ bv4 8) (_ bv1 8))))
(assert (not (= (_ bv9 8) x65)))
(assert (not (= (_ bv9 8) x75)))
(assert (not (= (_ bv9 8) (_ bv1 8))))
(assert (not (= x65 x75)))
(assert (not (= x65 (_ bv1 8))))
(assert (not (= x75 (_ bv1 8))))
(assert (not (= x06 x16)))
(assert (not (= x06 (_ bv6 8))))
(assert (not (= x06 x36)))
(assert (not (= x06 x46)))
(assert (not (= x06 (_ bv1 8))))
(assert (not (= x06 (_ bv2 8))))
(assert (not (= x06 (_ bv8 8))))
(assert (not (= x06 x86)))
(assert (not (= x16 (_ bv6 8))))
(assert (not (= x16 x36)))
(assert (not (= x16 x46)))
(assert (not (= x16 (_ bv1 8))))
(assert (not (= x16 (_ bv2 8))))
(assert (not (= x16 (_ bv8 8))))
(assert (not (= x16 x86)))
(assert (not (= (_ bv6 8) x36)))
(assert (not (= (_ bv6 8) x46)))
(assert (not (= (_ bv6 8) (_ bv1 8))))
(assert (not (= (_ bv6 8) (_ bv2 8))))
(assert (not (= (_ bv6 8) (_ bv8 8))))
(assert (not (= (_ bv6 8) x86)))
(assert (not (= x36 x46)))
(assert (not (= x36 (_ bv1 8))))
(assert (not (= x36 (_ bv2 8))))
(assert (not (= x36 (_ bv8 8))))
(assert (not (= x36 x86)))
(assert (not (= x46 (_ bv1 8))))
(assert (not (= x46 (_ bv2 8))))
(assert (not (= x46 (_ bv8 8))))
(assert (not (= x46 x86)))
(assert (not (= (_ bv1 8) (_ bv2 8))))
(assert (not (= (_ bv1 8) (_ bv8 8))))
(assert (not (= (_ bv1 8) x86)))
(assert (not (= (_ bv2 8) (_ bv8 8))))
(assert (not (= (_ bv2 8) x86)))
(assert (not (= (_ bv8 8) x86)))
(assert (not (= (_ bv5 8) x17)))
(assert (not (= (_ bv5 8) (_ bv3 8))))
(assert (not (= (_ bv5 8) x37)))
(assert (not (= (_ bv5 8) x47)))
(assert (not (= (_ bv5 8) (_ bv7 8))))
(assert (not (= (_ bv5 8) (_ bv1 8))))
(assert (not (= (_ bv5 8) x77)))
(assert (not (= (_ bv5 8) (_ bv9 8))))
(assert (not (= x17 (_ bv3 8))))
(assert (not (= x17 x37)))
(assert (not (= x17 x47)))
(assert (not (= x17 (_ bv7 8))))
(assert (not (= x17 (_ bv1 8))))
(assert (not (= x17 x77)))
(assert (not (= x17 (_ bv9 8))))
(assert (not (= (_ bv3 8) x37)))
(assert (not (= (_ bv3 8) x47)))
(assert (not (= (_ bv3 8) (_ bv7 8))))
(assert (not (= (_ bv3 8) (_ bv1 8))))
(assert (not (= (_ bv3 8) x77)))
(assert (not (= (_ bv3 8) (_ bv9 8))))
(assert (not (= x37 x47)))
(assert (not (= x37 (_ bv7 8))))
(assert (not (= x37 (_ bv1 8))))
(assert (not (= x37 x77)))
(assert (not (= x37 (_ bv9 8))))
(assert (not (= x47 (_ bv7 8))))
(assert (not (= x47 (_ bv1 8))))
(assert (not (= x47 x77)))
(assert (not (= x47 (_ bv9 8))))
(assert (not (= (_ bv7 8) (_ bv1 8))))
(assert (not (= (_ bv7 8) x77)))
(assert (not (= (_ bv7 8) (_ bv9 8))))
(assert (not (= (_ bv1 8) x77)))
(assert (not (= (_ bv1 8) (_ bv9 8))))
(assert (not (= x77 (_ bv9 8))))
(assert (not (= x08 (_ bv1 8))))
(assert (not (= x08 x28)))
(assert (not (= x08 (_ bv3 8))))
(assert (not (= x08 x48)))
(assert (not (= x08 x58)))
(assert (not (= x08 x68)))
(assert (not (= x08 x78)))
(assert (not (= x08 (_ bv5 8))))
(assert (not (= (_ bv1 8) x28)))
(assert (not (= (_ bv1 8) (_ bv3 8))))
(assert (not (= (_ bv1 8) x48)))
(assert (not (= (_ bv1 8) x58)))
(assert (not (= (_ bv1 8) x68)))
(assert (not (= (_ bv1 8) x78)))
(assert (not (= (_ bv1 8) (_ bv5 8))))
(assert (not (= x28 (_ bv3 8))))
(assert (not (= x28 x48)))
(assert (not (= x28 x58)))
(assert (not (= x28 x68)))
(assert (not (= x28 x78)))
(assert (not (= x28 (_ bv5 8))))
(assert (not (= (_ bv3 8) x48)))
(assert (not (= (_ bv3 8) x58)))
(assert (not (= (_ bv3 8) x68)))
(assert (not (= (_ bv3 8) x78)))
(assert (not (= (_ bv3 8) (_ bv5 8))))
(assert (not (= x48 x58)))
(assert (not (= x48 x68)))
(assert (not (= x48 x78)))
(assert (not (= x48 (_ bv5 8))))
(assert (not (= x58 x68)))
(assert (not (= x58 x78)))
(assert (not (= x58 (_ bv5 8))))
(assert (not (= x68 x78)))
(assert (not (= x68 (_ bv5 8))))
(assert (not (= x78 (_ bv5 8))))
(assert (not (= (_ bv9 8) (_ bv8 8))))
(assert (not (= (_ bv9 8) (_ bv6 8))))
(assert (not (= (_ bv9 8) x10)))
(assert (not (= (_ bv9 8) x11)))
(assert (not (= (_ bv9 8) (_ bv2 8))))
(assert (not (= (_ bv9 8) x20)))
(assert (not (= (_ bv9 8) (_ bv4 8))))
(assert (not (= (_ bv9 8) x22)))
(assert (not (= (_ bv8 8) (_ bv6 8))))
(assert (not (= (_ bv8 8) x10)))
(assert (not (= (_ bv8 8) x11)))
(assert (not (= (_ bv8 8) (_ bv2 8))))
(assert (not (= (_ bv8 8) x20)))
(assert (not (= (_ bv8 8) (_ bv4 8))))
(assert (not (= (_ bv8 8) x22)))
(assert (not (= (_ bv6 8) x10)))
(assert (not (= (_ bv6 8) x11)))
(assert (not (= (_ bv6 8) (_ bv2 8))))
(assert (not (= (_ bv6 8) x20)))
(assert (not (= (_ bv6 8) (_ bv4 8))))
(assert (not (= (_ bv6 8) x22)))
(assert (not (= x10 x11)))
(assert (not (= x10 (_ bv2 8))))
(assert (not (= x10 x20)))
(assert (not (= x10 (_ bv4 8))))
(assert (not (= x10 x22)))
(assert (not (= x11 (_ bv2 8))))
(assert (not (= x11 x20)))
(assert (not (= x11 (_ bv4 8))))
(assert (not (= x11 x22)))
(assert (not (= (_ bv2 8) x20)))
(assert (not (= (_ bv2 8) (_ bv4 8))))
(assert (not (= (_ bv2 8) x22)))
(assert (not (= x20 (_ bv4 8))))
(assert (not (= x20 x22)))
(assert (not (= (_ bv4 8) x22)))
(assert (not (= (_ bv4 8) x04)))
(assert (not (= (_ bv4 8) x05)))
(assert (not (= (_ bv4 8) x13)))
(assert (not (= (_ bv4 8) x14)))
(assert (not (= (_ bv4 8) x15)))
(assert (not (= (_ bv4 8) (_ bv2 8))))
(assert (not (= (_ bv4 8) (_ bv8 8))))
(assert (not (= (_ bv4 8) x25)))
(assert (not (= x04 x05)))
(assert (not (= x04 x13)))
(assert (not (= x04 x14)))
(assert (not (= x04 x15)))
(assert (not (= x04 (_ bv2 8))))
(assert (not (= x04 (_ bv8 8))))
(assert (not (= x04 x25)))
(assert (not (= x05 x13)))
(assert (not (= x05 x14)))
(assert (not (= x05 x15)))
(assert (not (= x05 (_ bv2 8))))
(assert (not (= x05 (_ bv8 8))))
(assert (not (= x05 x25)))
(assert (not (= x13 x14)))
(assert (not (= x13 x15)))
(assert (not (= x13 (_ bv2 8))))
(assert (not (= x13 (_ bv8 8))))
(assert (not (= x13 x25)))
(assert (not (= x14 x15)))
(assert (not (= x14 (_ bv2 8))))
(assert (not (= x14 (_ bv8 8))))
(assert (not (= x14 x25)))
(assert (not (= x15 (_ bv2 8))))
(assert (not (= x15 (_ bv8 8))))
(assert (not (= x15 x25)))
(assert (not (= (_ bv2 8) (_ bv8 8))))
(assert (not (= (_ bv2 8) x25)))
(assert (not (= (_ bv8 8) x25)))
(assert (not (= x06 (_ bv5 8))))
(assert (not (= x06 x08)))
(assert (not (= x06 x16)))
(assert (not (= x06 x17)))
(assert (not (= x06 (_ bv1 8))))
(assert (not (= x06 (_ bv6 8))))
(assert (not (= x06 (_ bv3 8))))
(assert (not (= x06 x28)))
(assert (not (= (_ bv5 8) x08)))
(assert (not (= (_ bv5 8) x16)))
(assert (not (= (_ bv5 8) x17)))
(assert (not (= (_ bv5 8) (_ bv1 8))))
(assert (not (= (_ bv5 8) (_ bv6 8))))
(assert (not (= (_ bv5 8) (_ bv3 8))))
(assert (not (= (_ bv5 8) x28)))
(assert (not (= x08 x16)))
(assert (not (= x08 x17)))
(assert (not (= x08 (_ bv1 8))))
(assert (not (= x08 (_ bv6 8))))
(assert (not (= x08 (_ bv3 8))))
(assert (not (= x08 x28)))
(assert (not (= x16 x17)))
(assert (not (= x16 (_ bv1 8))))
(assert (not (= x16 (_ bv6 8))))
(assert (not (= x16 (_ bv3 8))))
(assert (not (= x16 x28)))
(assert (not (= x17 (_ bv1 8))))
(assert (not (= x17 (_ bv6 8))))
(assert (not (= x17 (_ bv3 8))))
(assert (not (= x17 x28)))
(assert (not (= (_ bv1 8) (_ bv6 8))))
(assert (not (= (_ bv1 8) (_ bv3 8))))
(assert (not (= (_ bv1 8) x28)))
(assert (not (= (_ bv6 8) (_ bv3 8))))
(assert (not (= (_ bv6 8) x28)))
(assert (not (= (_ bv3 8) x28)))
(assert (not (= (_ bv2 8) x31)))
(assert (not (= (_ bv2 8) x32)))
(assert (not (= (_ bv2 8) (_ bv8 8))))
(assert (not (= (_ bv2 8) x41)))
(assert (not (= (_ bv2 8) (_ bv5 8))))
(assert (not (= (_ bv2 8) x50)))
(assert (not (= (_ bv2 8) (_ bv3 8))))
(assert (not (= (_ bv2 8) x52)))
(assert (not (= x31 x32)))
(assert (not (= x31 (_ bv8 8))))
(assert (not (= x31 x41)))
(assert (not (= x31 (_ bv5 8))))
(assert (not (= x31 x50)))
(assert (not (= x31 (_ bv3 8))))
(assert (not (= x31 x52)))
(assert (not (= x32 (_ bv8 8))))
(assert (not (= x32 x41)))
(assert (not (= x32 (_ bv5 8))))
(assert (not (= x32 x50)))
(assert (not (= x32 (_ bv3 8))))
(assert (not (= x32 x52)))
(assert (not (= (_ bv8 8) x41)))
(assert (not (= (_ bv8 8) (_ bv5 8))))
(assert (not (= (_ bv8 8) x50)))
(assert (not (= (_ bv8 8) (_ bv3 8))))
(assert (not (= (_ bv8 8) x52)))
(assert (not (= x41 (_ bv5 8))))
(assert (not (= x41 x50)))
(assert (not (= x41 (_ bv3 8))))
(assert (not (= x41 x52)))
(assert (not (= (_ bv5 8) x50)))
(assert (not (= (_ bv5 8) (_ bv3 8))))
(assert (not (= (_ bv5 8) x52)))
(assert (not (= x50 (_ bv3 8))))
(assert (not (= x50 x52)))
(assert (not (= (_ bv3 8) x52)))
(assert (not (= (_ bv7 8) x34)))
(assert (not (= (_ bv7 8) x35)))
(assert (not (= (_ bv7 8) x43)))
(assert (not (= (_ bv7 8) x44)))
(assert (not (= (_ bv7 8) (_ bv4 8))))
(assert (not (= (_ bv7 8) x53)))
(assert (not (= (_ bv7 8) x54)))
(assert (not (= (_ bv7 8) (_ bv9 8))))
(assert (not (= x34 x35)))
(assert (not (= x34 x43)))
(assert (not (= x34 x44)))
(assert (not (= x34 (_ bv4 8))))
(assert (not (= x34 x53)))
(assert (not (= x34 x54)))
(assert (not (= x34 (_ bv9 8))))
(assert (not (= x35 x43)))
(assert (not (= x35 x44)))
(assert (not (= x35 (_ bv4 8))))
(assert (not (= x35 x53)))
(assert (not (= x35 x54)))
(assert (not (= x35 (_ bv9 8))))
(assert (not (= x43 x44)))
(assert (not (= x43 (_ bv4 8))))
(assert (not (= x43 x53)))
(assert (not (= x43 x54)))
(assert (not (= x43 (_ bv9 8))))
(assert (not (= x44 (_ bv4 8))))
(assert (not (= x44 x53)))
(assert (not (= x44 x54)))
(assert (not (= x44 (_ bv9 8))))
(assert (not (= (_ bv4 8) x53)))
(assert (not (= (_ bv4 8) x54)))
(assert (not (= (_ bv4 8) (_ bv9 8))))
(assert (not (= x53 x54)))
(assert (not (= x53 (_ bv9 8))))
(assert (not (= x54 (_ bv9 8))))
(assert (not (= x36 x37)))
(assert (not (= x36 (_ bv3 8))))
(assert (not (= x36 x46)))
(assert (not (= x36 x47)))
(assert (not (= x36 x48)))
(assert (not (= x36 (_ bv1 8))))
(assert (not (= x36 (_ bv7 8))))
(assert (not (= x36 x58)))
(assert (not (= x37 (_ bv3 8))))
(assert (not (= x37 x46)))
(assert (not (= x37 x47)))
(assert (not (= x37 x48)))
(assert (not (= x37 (_ bv1 8))))
(assert (not (= x37 (_ bv7 8))))
(assert (not (= x37 x58)))
(assert (not (= (_ bv3 8) x46)))
(assert (not (= (_ bv3 8) x47)))
(assert (not (= (_ bv3 8) x48)))
(assert (not (= (_ bv3 8) (_ bv1 8))))
(assert (not (= (_ bv3 8) (_ bv7 8))))
(assert (not (= (_ bv3 8) x58)))
(assert (not (= x46 x47)))
(assert (not (= x46 x48)))
(assert (not (= x46 (_ bv1 8))))
(assert (not (= x46 (_ bv7 8))))
(assert (not (= x46 x58)))
(assert (not (= x47 x48)))
(assert (not (= x47 (_ bv1 8))))
(assert (not (= x47 (_ bv7 8))))
(assert (not (= x47 x58)))
(assert (not (= x48 (_ bv1 8))))
(assert (not (= x48 (_ bv7 8))))
(assert (not (= x48 x58)))
(assert (not (= (_ bv1 8) (_ bv7 8))))
(assert (not (= (_ bv1 8) x58)))
(assert (not (= (_ bv7 8) x58)))
(assert (not (= x60 (_ bv6 8))))
(assert (not (= x60 (_ bv3 8))))
(assert (not (= x60 x70)))
(assert (not (= x60 x71)))
(assert (not (= x60 (_ bv9 8))))
(assert (not (= x60 (_ bv7 8))))
(assert (not (= x60 x81)))
(assert (not (= x60 x82)))
(assert (not (= (_ bv6 8) (_ bv3 8))))
(assert (not (= (_ bv6 8) x70)))
(assert (not (= (_ bv6 8) x71)))
(assert (not (= (_ bv6 8) (_ bv9 8))))
(assert (not (= (_ bv6 8) (_ bv7 8))))
(assert (not (= (_ bv6 8) x81)))
(assert (not (= (_ bv6 8) x82)))
(assert (not (= (_ bv3 8) x70)))
(assert (not (= (_ bv3 8) x71)))
(assert (not (= (_ bv3 8) (_ bv9 8))))
(assert (not (= (_ bv3 8) (_ bv7 8))))
(assert (not (= (_ bv3 8) x81)))
(assert (not (= (_ bv3 8) x82)))
(assert (not (= x70 x71)))
(assert (not (= x70 (_ bv9 8))))
(assert (not (= x70 (_ bv7 8))))
(assert (not (= x70 x81)))
(assert (not (= x70 x82)))
(assert (not (= x71 (_ bv9 8))))
(assert (not (= x71 (_ bv7 8))))
(assert (not (= x71 x81)))
(assert (not (= x71 x82)))
(assert (not (= (_ bv9 8) (_ bv7 8))))
(assert (not (= (_ bv9 8) x81)))
(assert (not (= (_ bv9 8) x82)))
(assert (not (= (_ bv7 8) x81)))
(assert (not (= (_ bv7 8) x82)))
(assert (not (= x81 x82)))
(assert (not (= (_ bv8 8) x64)))
(assert (not (= (_ bv8 8) x65)))
(assert (not (= (_ bv8 8) x73)))
(assert (not (= (_ bv8 8) (_ bv5 8))))
(assert (not (= (_ bv8 8) x75)))
(assert (not (= (_ bv8 8) (_ bv6 8))))
(assert (not (= (_ bv8 8) x84)))
(assert (not (= (_ bv8 8) (_ bv1 8))))
(assert (not (= x64 x65)))
(assert (not (= x64 x73)))
(assert (not (= x64 (_ bv5 8))))
(assert (not (= x64 x75)))
(assert (not (= x64 (_ bv6 8))))
(assert (not (= x64 x84)))
(assert (not (= x64 (_ bv1 8))))
(assert (not (= x65 x73)))
(assert (not (= x65 (_ bv5 8))))
(assert (not (= x65 x75)))
(assert (not (= x65 (_ bv6 8))))
(assert (not (= x65 x84)))
(assert (not (= x65 (_ bv1 8))))
(assert (not (= x73 (_ bv5 8))))
(assert (not (= x73 x75)))
(assert (not (= x73 (_ bv6 8))))
(assert (not (= x73 x84)))
(assert (not (= x73 (_ bv1 8))))
(assert (not (= (_ bv5 8) x75)))
(assert (not (= (_ bv5 8) (_ bv6 8))))
(assert (not (= (_ bv5 8) x84)))
(assert (not (= (_ bv5 8) (_ bv1 8))))
(assert (not (= x75 (_ bv6 8))))
(assert (not (= x75 x84)))
(assert (not (= x75 (_ bv1 8))))
(assert (not (= (_ bv6 8) x84)))
(assert (not (= (_ bv6 8) (_ bv1 8))))
(assert (not (= x84 (_ bv1 8))))
(assert (not (= (_ bv2 8) (_ bv1 8))))
(assert (not (= (_ bv2 8) x68)))
(assert (not (= (_ bv2 8) (_ bv8 8))))
(assert (not (= (_ bv2 8) x77)))
(assert (not (= (_ bv2 8) x78)))
(assert (not (= (_ bv2 8) x86)))
(assert (not (= (_ bv2 8) (_ bv9 8))))
(assert (not (= (_ bv2 8) (_ bv5 8))))
(assert (not (= (_ bv1 8) x68)))
(assert (not (= (_ bv1 8) (_ bv8 8))))
(assert (not (= (_ bv1 8) x77)))
(assert (not (= (_ bv1 8) x78)))
(assert (not (= (_ bv1 8) x86)))
(assert (not (= (_ bv1 8) (_ bv9 8))))
(assert (not (= (_ bv1 8) (_ bv5 8))))
(assert (not (= x68 (_ bv8 8))))
(assert (not (= x68 x77)))
(assert (not (= x68 x78)))
(assert (not (= x68 x86)))
(assert (not (= x68 (_ bv9 8))))
(assert (not (= x68 (_ bv5 8))))
(assert (not (= (_ bv8 8) x77)))
(assert (not (= (_ bv8 8) x78)))
(assert (not (= (_ bv8 8) x86)))
(assert (not (= (_ bv8 8) (_ bv9 8))))
(assert (not (= (_ bv8 8) (_ bv5 8))))
(assert (not (= x77 x78)))
(assert (not (= x77 x86)))
(assert (not (= x77 (_ bv9 8))))
(assert (not (= x77 (_ bv5 8))))
(assert (not (= x78 x86)))
(assert (not (= x78 (_ bv9 8))))
(assert (not (= x78 (_ bv5 8))))
(assert (not (= x86 (_ bv9 8))))
(assert (not (= x86 (_ bv5 8))))
(assert (not (= (_ bv9 8) (_ bv5 8))))
(check-sat)
(exit)
